% File represents an instance of a Composite Structure problem to be solved by a CP framework
% Created on 2025-03-25 14:06:14.861
T = 50;
n = 36;
m = 60;
edges = [(1, 2),
(7, 8),
(14, 13),
(19, 20),
(25, 26),
(32, 31),
(3, 2),
(9, 8),
(14, 15),
(20, 21),
(27, 26),
(32, 33),
(3, 4),
(9, 10),
(15, 16),
(21, 22),
(27, 28),
(33, 34),
(5, 4),
(11, 10),
(17, 16),
(23, 22),
(29, 28),
(35, 34),
(5, 6),
(11, 12),
(18, 17),
(23, 24),
(29, 30),
(35, 36),
(7, 1),
(7, 13),
(19, 13),
(19, 25),
(25, 31),
(8, 2),
(14, 8),
(14, 20),
(20, 26),
(32, 26),
(9, 3),
(9, 15),
(15, 21),
(27, 21),
(27, 33),
(10, 4),
(10, 16),
(16, 22),
(28, 22),
(28, 34),
(5, 11),
(11, 17),
(23, 17),
(29, 23),
(29, 35),
(6, 12),
(12, 18),
(18, 24),
(30, 24),
(36, 30)];
counts = [|6, 12, 12, 8,
|6, 10, 12, 8,
|6, 18, 14, 8,
|4, 18, 12, 6,
|4, 18, 20, 8,
|4, 16, 16, 8,
|8, 12, 16, 8,
|8, 12, 14, 8,
|8, 18, 14, 8,
|4, 18, 14, 6,
|4, 18, 14, 8,
|4, 16, 14, 8,
|8, 8, 16, 8,
|8, 12, 16, 8,
|8, 12, 14, 8,
|4, 12, 14, 4,
|4, 16, 14, 4,
|4, 16, 14, 6,
|8, 12, 18, 12,
|8, 10, 16, 8,
|4, 10, 14, 8,
|4, 10, 14, 4,
|4, 16, 18, 4,
|2, 14, 12, 4,
|8, 6, 16, 10,
|6, 6, 16, 6,
|6, 10, 20, 8,
|4, 10, 18, 6,
|4, 16, 18, 6,
|2, 14, 16, 4,
|8, 6, 16, 4,
|8, 6, 22, 8,
|6, 6, 20, 8,
|4, 6, 16, 6,
|4, 14, 18, 6,
|4, 14, 16, 6|];
